85 85
34 53
23 22
14 16
2 61
11 66
35 46
27 83
12 73
18 78
39 5
16 62
25 69
19 47
5 77
24 15
7 25
20 44
13 9
21 40
12 21
25 85
13 79
16 27
39 55
11 58
32 56
28 28
29 37
42 49
14 76
22 34
30 14
42 68
3 30
34 63
20 8
9 23
33 3
31 24
38 20
24 64
32 19
10 84
4 33
41 52
36 2
28 11
29 57
3 38
10 18
6 10
18 48
40 41
19 80
5 50
37 4
33 31
41 29
30 75
36 82
22 13
1 17
37 65
6 39
38 1
8 32
26 59
23 7
15 67
1 51
17 43
4 12
21 81
40 26
15 42
26 74
1 54
9 70
7 6
35 72
31 71
8 36
2 35
27 45
17 60
